
        $ From http://www.csplib.org/Problems/prob009/data/helmut.pdf
        $ Problem number 40
        $ Sequence length : 24
        language ESSENCE' 1.0
        letting sizemaster be 316
        letting sizes be sequence(3,9,10,12,13,14,15,23,24,33,36,37,48,52,54,55,57,65,66,78,79,93,144,172)
        